84
400
272	1
271	1
269	1
266	1
261	2
253	1
248	1
247	1
243	1
241	1
240	2
239	2
238	1
236	1
234	1
233	1
232	1
228	1
227	1
222	1
221	1
212	1
211	1
206	2
203	2
199	2
198	1
196	1
194	1
188	2
187	1
186	2
185	1
184	1
180	1
177	1
176	1
169	2
167	1
165	2
163	1
159	1
157	1
156	1
151	1
149	1
144	1
143	1
142	1
136	1
133	1
131	1
130	1
127	1
125	2
113	2
112	1
108	1
106	1
104	1
103	1
102	1
101	1
97	1
96	1
95	2
93	1
92	1
88	1
84	2
81	1
75	2
74	1
72	2
71	1
70	1
68	1
67	1
64	1
62	1
53	1
46	1
42	1
41	1
